ALGO = All
EDIFF = 1e-05
EDIFFG = -0.01
ENCUT = 600
GGA = Ps
IBRION = 2
ISIF = 3
ISMEAR = 0
ISPIN = 2
ISYM = 0
LASPH = True
LCHARG = False
LDAU = True
LDAUJ = 0 0
LDAUL = 2 0
LDAUPRINT = 1
LDAUTYPE = 2
LDAUU = 5 0
LMAXMIX = 4
LORBIT = 11
LREAL = Auto
LWAVE = False
MAGMOM = 2 -2 -2 -2 -2 2 2 2 -2 2 2 2 2 -2 -2 -2 -2 2 2 2 2 -2 -2 -2 2 -2 -2 -2 -2 2 2 2 0 0 0 0 0 0 0 0 0 0 0 0 0 0 0 0 0 0 0 0 0 0 0 0 0 0 0 0 0 0 0 0
NCORE = 1
NELM = 500
NSW = 100
PREC = Accurate
SIGMA = 0.05
