pymatgen with grid density = 1985 / number of atoms
0
Gamma
3 3 3
