ALGO = All
EDIFF = 1e-05
EDIFFG = -0.01
ENCUT = 600
GGA = Ps
IBRION = 2
ISIF = 3
ISMEAR = 0
ISPIN = 2
ISYM = 0
LASPH = True
LCHARG = False
LMAXMIX = 4
LORBIT = 11
LREAL = Auto
LWAVE = False
MAGMOM = 8*0.6
NCORE = 20
NELM = 500
NSW = 100
PREC = Accurate
SIGMA = 0.05
