pymatgen with grid density = 1930 / number of atoms
0
Gamma
6 6 6
