ALGO = All
MAGMOM = 2 -2 -2 -2 -2 2 2 2 -2 2 2 2 2 -2 -2 -2 -2 2 2 2 2 -2 -2 -2 2 -2 -2 -2 -2 2 2 2 0 0 0 0 0 0 0 0 0 0 0 0 0 0 0 0 0 0 0 0 0 0 0 0 0 0 0 0 0 0 0 0

ISIF = 2